42	0

0	2	2	3
4	1	4
1	2	4	5
9	1	6
9	1	6
5	1	7
8	1	8
5	1	9
1	1	10
2	2	11	12
6	1	13
8	1	14
2	1	14
2	2	15	16
2	1	17
1	2	17	19
5	1	18
7	1	20
8	1	20
9	1	21
10	1	22
9	1	23
1	1	24
7	1	25
3	1	26
8	1	27
5	1	28
1	1	29
4	1	30
9	1	31
8	1	32
2	1	33
10	1	34
5	1	35
6	1	36
9	1	37
4	2	38	39
7	1	40
6	1	40
1	1	41
4	1	42
0	0
